(set-logic QF_LRA)
(declare-fun T1 () Real )
(declare-fun T2 () Real )
(declare-fun T3 () Real )
(declare-fun T4 () Real )
(declare-fun T5 () Real )
(declare-fun T6 () Real )
(declare-fun T7 () Real )
(declare-fun T8 () Real )
(declare-fun Z () Real )
(assert ( and 
(or ( <= ( + T1 17 ) T2 ) ( <= ( + T2 4 ) T1 ) )
(or ( <= ( + T1 78 )  ( + T2 4 ) ) ( <= ( + T2 19 )( + T1 17 ) ) )
(or ( <= ( + T1 96 )  ( + T2 19 ) ) ( <= ( + T2 70 )( + T1 78 ) ) )
(or ( <= ( + T1 168 )  ( + T2 70 ) ) ( <= ( + T2 132 )( + T1 96 ) ) )
(or ( <= ( + T1 227 )  ( + T2 132 ) ) ( <= ( + T2 176 )( + T1 168 ) ) )
(or ( <= ( + T1 286 )  ( + T2 176 ) ) ( <= ( + T2 219 )( + T1 227 ) ) )
(or ( <= ( + T1 365 )  ( + T2 219 ) ) ( <= ( + T2 254 )( + T1 286 ) ) )
(or ( <= ( + T1 368 )  ( + T2 254 ) ) ( <= ( + T2 316 )( + T1 365 ) ) )
(or ( <= ( + T1 446 )  ( + T2 316 ) ) ( <= ( + T2 404 )( + T1 368 ) ) )
(or ( <= ( + T1 457 )  ( + T2 404 ) ) ( <= ( + T2 490 )( + T1 446 ) ) )
(or ( <= ( + T1 17 ) T3 ) ( <= ( + T3 12 ) T1 ) )
(or ( <= ( + T1 78 )  ( + T3 12 ) ) ( <= ( + T3 91 )( + T1 17 ) ) )
(or ( <= ( + T1 96 )  ( + T3 91 ) ) ( <= ( + T3 140 )( + T1 78 ) ) )
(or ( <= ( + T1 168 )  ( + T3 140 ) ) ( <= ( + T3 150 )( + T1 96 ) ) )
(or ( <= ( + T1 227 )  ( + T3 150 ) ) ( <= ( + T3 175 )( + T1 168 ) ) )
(or ( <= ( + T1 286 )  ( + T3 175 ) ) ( <= ( + T3 233 )( + T1 227 ) ) )
(or ( <= ( + T1 365 )  ( + T3 233 ) ) ( <= ( + T3 296 )( + T1 286 ) ) )
(or ( <= ( + T1 368 )  ( + T3 296 ) ) ( <= ( + T3 383 )( + T1 365 ) ) )
(or ( <= ( + T1 446 )  ( + T3 383 ) ) ( <= ( + T3 436 )( + T1 368 ) ) )
(or ( <= ( + T1 457 )  ( + T3 436 ) ) ( <= ( + T3 533 )( + T1 446 ) ) )
(or ( <= ( + T1 17 ) T4 ) ( <= ( + T4 46 ) T1 ) )
(or ( <= ( + T1 78 )  ( + T4 46 ) ) ( <= ( + T4 67 )( + T1 17 ) ) )
(or ( <= ( + T1 96 )  ( + T4 67 ) ) ( <= ( + T4 76 )( + T1 78 ) ) )
(or ( <= ( + T1 168 )  ( + T4 76 ) ) ( <= ( + T4 139 )( + T1 96 ) ) )
(or ( <= ( + T1 227 )  ( + T4 139 ) ) ( <= ( + T4 183 )( + T1 168 ) ) )
(or ( <= ( + T1 286 )  ( + T4 183 ) ) ( <= ( + T4 202 )( + T1 227 ) ) )
(or ( <= ( + T1 365 )  ( + T4 202 ) ) ( <= ( + T4 276 )( + T1 286 ) ) )
(or ( <= ( + T1 368 )  ( + T4 276 ) ) ( <= ( + T4 298 )( + T1 365 ) ) )
(or ( <= ( + T1 446 )  ( + T4 298 ) ) ( <= ( + T4 372 )( + T1 368 ) ) )
(or ( <= ( + T1 457 )  ( + T4 372 ) ) ( <= ( + T4 423 )( + T1 446 ) ) )
(or ( <= ( + T1 17 ) T5 ) ( <= ( + T5 32 ) T1 ) )
(or ( <= ( + T1 78 )  ( + T5 32 ) ) ( <= ( + T5 109 )( + T1 17 ) ) )
(or ( <= ( + T1 96 )  ( + T5 109 ) ) ( <= ( + T5 126 )( + T1 78 ) ) )
(or ( <= ( + T1 168 )  ( + T5 126 ) ) ( <= ( + T5 161 )( + T1 96 ) ) )
(or ( <= ( + T1 227 )  ( + T5 161 ) ) ( <= ( + T5 251 )( + T1 168 ) ) )
(or ( <= ( + T1 286 )  ( + T5 251 ) ) ( <= ( + T5 264 )( + T1 227 ) ) )
(or ( <= ( + T1 365 )  ( + T5 264 ) ) ( <= ( + T5 341 )( + T1 286 ) ) )
(or ( <= ( + T1 368 )  ( + T5 341 ) ) ( <= ( + T5 365 )( + T1 365 ) ) )
(or ( <= ( + T1 446 )  ( + T5 365 ) ) ( <= ( + T5 439 )( + T1 368 ) ) )
(or ( <= ( + T1 457 )  ( + T5 439 ) ) ( <= ( + T5 455 )( + T1 446 ) ) )
(or ( <= ( + T1 17 ) T6 ) ( <= ( + T6 10 ) T1 ) )
(or ( <= ( + T1 78 )  ( + T6 10 ) ) ( <= ( + T6 47 )( + T1 17 ) ) )
(or ( <= ( + T1 96 )  ( + T6 47 ) ) ( <= ( + T6 93 )( + T1 78 ) ) )
(or ( <= ( + T1 168 )  ( + T6 93 ) ) ( <= ( + T6 103 )( + T1 96 ) ) )
(or ( <= ( + T1 227 )  ( + T6 103 ) ) ( <= ( + T6 201 )( + T1 168 ) ) )
(or ( <= ( + T1 286 )  ( + T6 201 ) ) ( <= ( + T6 272 )( + T1 227 ) ) )
(or ( <= ( + T1 365 )  ( + T6 272 ) ) ( <= ( + T6 292 )( + T1 286 ) ) )
(or ( <= ( + T1 368 )  ( + T6 292 ) ) ( <= ( + T6 304 )( + T1 365 ) ) )
(or ( <= ( + T1 446 )  ( + T6 304 ) ) ( <= ( + T6 313 )( + T1 368 ) ) )
(or ( <= ( + T1 457 )  ( + T6 313 ) ) ( <= ( + T6 385 )( + T1 446 ) ) )
(or ( <= ( + T1 17 ) T7 ) ( <= ( + T7 8 ) T1 ) )
(or ( <= ( + T1 78 )  ( + T7 8 ) ) ( <= ( + T7 62 )( + T1 17 ) ) )
(or ( <= ( + T1 96 )  ( + T7 62 ) ) ( <= ( + T7 106 )( + T1 78 ) ) )
(or ( <= ( + T1 168 )  ( + T7 106 ) ) ( <= ( + T7 175 )( + T1 96 ) ) )
(or ( <= ( + T1 227 )  ( + T7 175 ) ) ( <= ( + T7 244 )( + T1 168 ) ) )
(or ( <= ( + T1 286 )  ( + T7 244 ) ) ( <= ( + T7 283 )( + T1 227 ) ) )
(or ( <= ( + T1 365 )  ( + T7 283 ) ) ( <= ( + T7 370 )( + T1 286 ) ) )
(or ( <= ( + T1 368 )  ( + T7 370 ) ) ( <= ( + T7 412 )( + T1 365 ) ) )
(or ( <= ( + T1 446 )  ( + T7 412 ) ) ( <= ( + T7 472 )( + T1 368 ) ) )
(or ( <= ( + T1 457 )  ( + T7 472 ) ) ( <= ( + T7 532 )( + T1 446 ) ) )
(or ( <= ( + T1 17 ) T8 ) ( <= ( + T8 44 ) T1 ) )
(or ( <= ( + T1 78 )  ( + T8 44 ) ) ( <= ( + T8 87 )( + T1 17 ) ) )
(or ( <= ( + T1 96 )  ( + T8 87 ) ) ( <= ( + T8 175 )( + T1 78 ) ) )
(or ( <= ( + T1 168 )  ( + T8 175 ) ) ( <= ( + T8 187 )( + T1 96 ) ) )
(or ( <= ( + T1 227 )  ( + T8 187 ) ) ( <= ( + T8 264 )( + T1 168 ) ) )
(or ( <= ( + T1 286 )  ( + T8 264 ) ) ( <= ( + T8 341 )( + T1 227 ) ) )
(or ( <= ( + T1 365 )  ( + T8 341 ) ) ( <= ( + T8 365 )( + T1 286 ) ) )
(or ( <= ( + T1 368 )  ( + T8 365 ) ) ( <= ( + T8 370 )( + T1 365 ) ) )
(or ( <= ( + T1 446 )  ( + T8 370 ) ) ( <= ( + T8 423 )( + T1 368 ) ) )
(or ( <= ( + T1 457 )  ( + T8 423 ) ) ( <= ( + T8 473 )( + T1 446 ) ) )
(or ( <= ( + T2 4 ) T3 ) ( <= ( + T3 12 ) T2 ) )
(or ( <= ( + T2 19 )  ( + T3 12 ) ) ( <= ( + T3 91 )( + T2 4 ) ) )
(or ( <= ( + T2 70 )  ( + T3 91 ) ) ( <= ( + T3 140 )( + T2 19 ) ) )
(or ( <= ( + T2 132 )  ( + T3 140 ) ) ( <= ( + T3 150 )( + T2 70 ) ) )
(or ( <= ( + T2 176 )  ( + T3 150 ) ) ( <= ( + T3 175 )( + T2 132 ) ) )
(or ( <= ( + T2 219 )  ( + T3 175 ) ) ( <= ( + T3 233 )( + T2 176 ) ) )
(or ( <= ( + T2 254 )  ( + T3 233 ) ) ( <= ( + T3 296 )( + T2 219 ) ) )
(or ( <= ( + T2 316 )  ( + T3 296 ) ) ( <= ( + T3 383 )( + T2 254 ) ) )
(or ( <= ( + T2 404 )  ( + T3 383 ) ) ( <= ( + T3 436 )( + T2 316 ) ) )
(or ( <= ( + T2 490 )  ( + T3 436 ) ) ( <= ( + T3 533 )( + T2 404 ) ) )
(or ( <= ( + T2 4 ) T4 ) ( <= ( + T4 46 ) T2 ) )
(or ( <= ( + T2 19 )  ( + T4 46 ) ) ( <= ( + T4 67 )( + T2 4 ) ) )
(or ( <= ( + T2 70 )  ( + T4 67 ) ) ( <= ( + T4 76 )( + T2 19 ) ) )
(or ( <= ( + T2 132 )  ( + T4 76 ) ) ( <= ( + T4 139 )( + T2 70 ) ) )
(or ( <= ( + T2 176 )  ( + T4 139 ) ) ( <= ( + T4 183 )( + T2 132 ) ) )
(or ( <= ( + T2 219 )  ( + T4 183 ) ) ( <= ( + T4 202 )( + T2 176 ) ) )
(or ( <= ( + T2 254 )  ( + T4 202 ) ) ( <= ( + T4 276 )( + T2 219 ) ) )
(or ( <= ( + T2 316 )  ( + T4 276 ) ) ( <= ( + T4 298 )( + T2 254 ) ) )
(or ( <= ( + T2 404 )  ( + T4 298 ) ) ( <= ( + T4 372 )( + T2 316 ) ) )
(or ( <= ( + T2 490 )  ( + T4 372 ) ) ( <= ( + T4 423 )( + T2 404 ) ) )
(or ( <= ( + T2 4 ) T5 ) ( <= ( + T5 32 ) T2 ) )
(or ( <= ( + T2 19 )  ( + T5 32 ) ) ( <= ( + T5 109 )( + T2 4 ) ) )
(or ( <= ( + T2 70 )  ( + T5 109 ) ) ( <= ( + T5 126 )( + T2 19 ) ) )
(or ( <= ( + T2 132 )  ( + T5 126 ) ) ( <= ( + T5 161 )( + T2 70 ) ) )
(or ( <= ( + T2 176 )  ( + T5 161 ) ) ( <= ( + T5 251 )( + T2 132 ) ) )
(or ( <= ( + T2 219 )  ( + T5 251 ) ) ( <= ( + T5 264 )( + T2 176 ) ) )
(or ( <= ( + T2 254 )  ( + T5 264 ) ) ( <= ( + T5 341 )( + T2 219 ) ) )
(or ( <= ( + T2 316 )  ( + T5 341 ) ) ( <= ( + T5 365 )( + T2 254 ) ) )
(or ( <= ( + T2 404 )  ( + T5 365 ) ) ( <= ( + T5 439 )( + T2 316 ) ) )
(or ( <= ( + T2 490 )  ( + T5 439 ) ) ( <= ( + T5 455 )( + T2 404 ) ) )
(or ( <= ( + T2 4 ) T6 ) ( <= ( + T6 10 ) T2 ) )
(or ( <= ( + T2 19 )  ( + T6 10 ) ) ( <= ( + T6 47 )( + T2 4 ) ) )
(or ( <= ( + T2 70 )  ( + T6 47 ) ) ( <= ( + T6 93 )( + T2 19 ) ) )
(or ( <= ( + T2 132 )  ( + T6 93 ) ) ( <= ( + T6 103 )( + T2 70 ) ) )
(or ( <= ( + T2 176 )  ( + T6 103 ) ) ( <= ( + T6 201 )( + T2 132 ) ) )
(or ( <= ( + T2 219 )  ( + T6 201 ) ) ( <= ( + T6 272 )( + T2 176 ) ) )
(or ( <= ( + T2 254 )  ( + T6 272 ) ) ( <= ( + T6 292 )( + T2 219 ) ) )
(or ( <= ( + T2 316 )  ( + T6 292 ) ) ( <= ( + T6 304 )( + T2 254 ) ) )
(or ( <= ( + T2 404 )  ( + T6 304 ) ) ( <= ( + T6 313 )( + T2 316 ) ) )
(or ( <= ( + T2 490 )  ( + T6 313 ) ) ( <= ( + T6 385 )( + T2 404 ) ) )
(or ( <= ( + T2 4 ) T7 ) ( <= ( + T7 8 ) T2 ) )
(or ( <= ( + T2 19 )  ( + T7 8 ) ) ( <= ( + T7 62 )( + T2 4 ) ) )
(or ( <= ( + T2 70 )  ( + T7 62 ) ) ( <= ( + T7 106 )( + T2 19 ) ) )
(or ( <= ( + T2 132 )  ( + T7 106 ) ) ( <= ( + T7 175 )( + T2 70 ) ) )
(or ( <= ( + T2 176 )  ( + T7 175 ) ) ( <= ( + T7 244 )( + T2 132 ) ) )
(or ( <= ( + T2 219 )  ( + T7 244 ) ) ( <= ( + T7 283 )( + T2 176 ) ) )
(or ( <= ( + T2 254 )  ( + T7 283 ) ) ( <= ( + T7 370 )( + T2 219 ) ) )
(or ( <= ( + T2 316 )  ( + T7 370 ) ) ( <= ( + T7 412 )( + T2 254 ) ) )
(or ( <= ( + T2 404 )  ( + T7 412 ) ) ( <= ( + T7 472 )( + T2 316 ) ) )
(or ( <= ( + T2 490 )  ( + T7 472 ) ) ( <= ( + T7 532 )( + T2 404 ) ) )
(or ( <= ( + T2 4 ) T8 ) ( <= ( + T8 44 ) T2 ) )
(or ( <= ( + T2 19 )  ( + T8 44 ) ) ( <= ( + T8 87 )( + T2 4 ) ) )
(or ( <= ( + T2 70 )  ( + T8 87 ) ) ( <= ( + T8 175 )( + T2 19 ) ) )
(or ( <= ( + T2 132 )  ( + T8 175 ) ) ( <= ( + T8 187 )( + T2 70 ) ) )
(or ( <= ( + T2 176 )  ( + T8 187 ) ) ( <= ( + T8 264 )( + T2 132 ) ) )
(or ( <= ( + T2 219 )  ( + T8 264 ) ) ( <= ( + T8 341 )( + T2 176 ) ) )
(or ( <= ( + T2 254 )  ( + T8 341 ) ) ( <= ( + T8 365 )( + T2 219 ) ) )
(or ( <= ( + T2 316 )  ( + T8 365 ) ) ( <= ( + T8 370 )( + T2 254 ) ) )
(or ( <= ( + T2 404 )  ( + T8 370 ) ) ( <= ( + T8 423 )( + T2 316 ) ) )
(or ( <= ( + T2 490 )  ( + T8 423 ) ) ( <= ( + T8 473 )( + T2 404 ) ) )
(or ( <= ( + T3 12 ) T4 ) ( <= ( + T4 46 ) T3 ) )
(or ( <= ( + T3 91 )  ( + T4 46 ) ) ( <= ( + T4 67 )( + T3 12 ) ) )
(or ( <= ( + T3 140 )  ( + T4 67 ) ) ( <= ( + T4 76 )( + T3 91 ) ) )
(or ( <= ( + T3 150 )  ( + T4 76 ) ) ( <= ( + T4 139 )( + T3 140 ) ) )
(or ( <= ( + T3 175 )  ( + T4 139 ) ) ( <= ( + T4 183 )( + T3 150 ) ) )
(or ( <= ( + T3 233 )  ( + T4 183 ) ) ( <= ( + T4 202 )( + T3 175 ) ) )
(or ( <= ( + T3 296 )  ( + T4 202 ) ) ( <= ( + T4 276 )( + T3 233 ) ) )
(or ( <= ( + T3 383 )  ( + T4 276 ) ) ( <= ( + T4 298 )( + T3 296 ) ) )
(or ( <= ( + T3 436 )  ( + T4 298 ) ) ( <= ( + T4 372 )( + T3 383 ) ) )
(or ( <= ( + T3 533 )  ( + T4 372 ) ) ( <= ( + T4 423 )( + T3 436 ) ) )
(or ( <= ( + T3 12 ) T5 ) ( <= ( + T5 32 ) T3 ) )
(or ( <= ( + T3 91 )  ( + T5 32 ) ) ( <= ( + T5 109 )( + T3 12 ) ) )
(or ( <= ( + T3 140 )  ( + T5 109 ) ) ( <= ( + T5 126 )( + T3 91 ) ) )
(or ( <= ( + T3 150 )  ( + T5 126 ) ) ( <= ( + T5 161 )( + T3 140 ) ) )
(or ( <= ( + T3 175 )  ( + T5 161 ) ) ( <= ( + T5 251 )( + T3 150 ) ) )
(or ( <= ( + T3 233 )  ( + T5 251 ) ) ( <= ( + T5 264 )( + T3 175 ) ) )
(or ( <= ( + T3 296 )  ( + T5 264 ) ) ( <= ( + T5 341 )( + T3 233 ) ) )
(or ( <= ( + T3 383 )  ( + T5 341 ) ) ( <= ( + T5 365 )( + T3 296 ) ) )
(or ( <= ( + T3 436 )  ( + T5 365 ) ) ( <= ( + T5 439 )( + T3 383 ) ) )
(or ( <= ( + T3 533 )  ( + T5 439 ) ) ( <= ( + T5 455 )( + T3 436 ) ) )
(or ( <= ( + T3 12 ) T6 ) ( <= ( + T6 10 ) T3 ) )
(or ( <= ( + T3 91 )  ( + T6 10 ) ) ( <= ( + T6 47 )( + T3 12 ) ) )
(or ( <= ( + T3 140 )  ( + T6 47 ) ) ( <= ( + T6 93 )( + T3 91 ) ) )
(or ( <= ( + T3 150 )  ( + T6 93 ) ) ( <= ( + T6 103 )( + T3 140 ) ) )
(or ( <= ( + T3 175 )  ( + T6 103 ) ) ( <= ( + T6 201 )( + T3 150 ) ) )
(or ( <= ( + T3 233 )  ( + T6 201 ) ) ( <= ( + T6 272 )( + T3 175 ) ) )
(or ( <= ( + T3 296 )  ( + T6 272 ) ) ( <= ( + T6 292 )( + T3 233 ) ) )
(or ( <= ( + T3 383 )  ( + T6 292 ) ) ( <= ( + T6 304 )( + T3 296 ) ) )
(or ( <= ( + T3 436 )  ( + T6 304 ) ) ( <= ( + T6 313 )( + T3 383 ) ) )
(or ( <= ( + T3 533 )  ( + T6 313 ) ) ( <= ( + T6 385 )( + T3 436 ) ) )
(or ( <= ( + T3 12 ) T7 ) ( <= ( + T7 8 ) T3 ) )
(or ( <= ( + T3 91 )  ( + T7 8 ) ) ( <= ( + T7 62 )( + T3 12 ) ) )
(or ( <= ( + T3 140 )  ( + T7 62 ) ) ( <= ( + T7 106 )( + T3 91 ) ) )
(or ( <= ( + T3 150 )  ( + T7 106 ) ) ( <= ( + T7 175 )( + T3 140 ) ) )
(or ( <= ( + T3 175 )  ( + T7 175 ) ) ( <= ( + T7 244 )( + T3 150 ) ) )
(or ( <= ( + T3 233 )  ( + T7 244 ) ) ( <= ( + T7 283 )( + T3 175 ) ) )
(or ( <= ( + T3 296 )  ( + T7 283 ) ) ( <= ( + T7 370 )( + T3 233 ) ) )
(or ( <= ( + T3 383 )  ( + T7 370 ) ) ( <= ( + T7 412 )( + T3 296 ) ) )
(or ( <= ( + T3 436 )  ( + T7 412 ) ) ( <= ( + T7 472 )( + T3 383 ) ) )
(or ( <= ( + T3 533 )  ( + T7 472 ) ) ( <= ( + T7 532 )( + T3 436 ) ) )
(or ( <= ( + T3 12 ) T8 ) ( <= ( + T8 44 ) T3 ) )
(or ( <= ( + T3 91 )  ( + T8 44 ) ) ( <= ( + T8 87 )( + T3 12 ) ) )
(or ( <= ( + T3 140 )  ( + T8 87 ) ) ( <= ( + T8 175 )( + T3 91 ) ) )
(or ( <= ( + T3 150 )  ( + T8 175 ) ) ( <= ( + T8 187 )( + T3 140 ) ) )
(or ( <= ( + T3 175 )  ( + T8 187 ) ) ( <= ( + T8 264 )( + T3 150 ) ) )
(or ( <= ( + T3 233 )  ( + T8 264 ) ) ( <= ( + T8 341 )( + T3 175 ) ) )
(or ( <= ( + T3 296 )  ( + T8 341 ) ) ( <= ( + T8 365 )( + T3 233 ) ) )
(or ( <= ( + T3 383 )  ( + T8 365 ) ) ( <= ( + T8 370 )( + T3 296 ) ) )
(or ( <= ( + T3 436 )  ( + T8 370 ) ) ( <= ( + T8 423 )( + T3 383 ) ) )
(or ( <= ( + T3 533 )  ( + T8 423 ) ) ( <= ( + T8 473 )( + T3 436 ) ) )
(or ( <= ( + T4 46 ) T5 ) ( <= ( + T5 32 ) T4 ) )
(or ( <= ( + T4 67 )  ( + T5 32 ) ) ( <= ( + T5 109 )( + T4 46 ) ) )
(or ( <= ( + T4 76 )  ( + T5 109 ) ) ( <= ( + T5 126 )( + T4 67 ) ) )
(or ( <= ( + T4 139 )  ( + T5 126 ) ) ( <= ( + T5 161 )( + T4 76 ) ) )
(or ( <= ( + T4 183 )  ( + T5 161 ) ) ( <= ( + T5 251 )( + T4 139 ) ) )
(or ( <= ( + T4 202 )  ( + T5 251 ) ) ( <= ( + T5 264 )( + T4 183 ) ) )
(or ( <= ( + T4 276 )  ( + T5 264 ) ) ( <= ( + T5 341 )( + T4 202 ) ) )
(or ( <= ( + T4 298 )  ( + T5 341 ) ) ( <= ( + T5 365 )( + T4 276 ) ) )
(or ( <= ( + T4 372 )  ( + T5 365 ) ) ( <= ( + T5 439 )( + T4 298 ) ) )
(or ( <= ( + T4 423 )  ( + T5 439 ) ) ( <= ( + T5 455 )( + T4 372 ) ) )
(or ( <= ( + T4 46 ) T6 ) ( <= ( + T6 10 ) T4 ) )
(or ( <= ( + T4 67 )  ( + T6 10 ) ) ( <= ( + T6 47 )( + T4 46 ) ) )
(or ( <= ( + T4 76 )  ( + T6 47 ) ) ( <= ( + T6 93 )( + T4 67 ) ) )
(or ( <= ( + T4 139 )  ( + T6 93 ) ) ( <= ( + T6 103 )( + T4 76 ) ) )
(or ( <= ( + T4 183 )  ( + T6 103 ) ) ( <= ( + T6 201 )( + T4 139 ) ) )
(or ( <= ( + T4 202 )  ( + T6 201 ) ) ( <= ( + T6 272 )( + T4 183 ) ) )
(or ( <= ( + T4 276 )  ( + T6 272 ) ) ( <= ( + T6 292 )( + T4 202 ) ) )
(or ( <= ( + T4 298 )  ( + T6 292 ) ) ( <= ( + T6 304 )( + T4 276 ) ) )
(or ( <= ( + T4 372 )  ( + T6 304 ) ) ( <= ( + T6 313 )( + T4 298 ) ) )
(or ( <= ( + T4 423 )  ( + T6 313 ) ) ( <= ( + T6 385 )( + T4 372 ) ) )
(or ( <= ( + T4 46 ) T7 ) ( <= ( + T7 8 ) T4 ) )
(or ( <= ( + T4 67 )  ( + T7 8 ) ) ( <= ( + T7 62 )( + T4 46 ) ) )
(or ( <= ( + T4 76 )  ( + T7 62 ) ) ( <= ( + T7 106 )( + T4 67 ) ) )
(or ( <= ( + T4 139 )  ( + T7 106 ) ) ( <= ( + T7 175 )( + T4 76 ) ) )
(or ( <= ( + T4 183 )  ( + T7 175 ) ) ( <= ( + T7 244 )( + T4 139 ) ) )
(or ( <= ( + T4 202 )  ( + T7 244 ) ) ( <= ( + T7 283 )( + T4 183 ) ) )
(or ( <= ( + T4 276 )  ( + T7 283 ) ) ( <= ( + T7 370 )( + T4 202 ) ) )
(or ( <= ( + T4 298 )  ( + T7 370 ) ) ( <= ( + T7 412 )( + T4 276 ) ) )
(or ( <= ( + T4 372 )  ( + T7 412 ) ) ( <= ( + T7 472 )( + T4 298 ) ) )
(or ( <= ( + T4 423 )  ( + T7 472 ) ) ( <= ( + T7 532 )( + T4 372 ) ) )
(or ( <= ( + T4 46 ) T8 ) ( <= ( + T8 44 ) T4 ) )
(or ( <= ( + T4 67 )  ( + T8 44 ) ) ( <= ( + T8 87 )( + T4 46 ) ) )
(or ( <= ( + T4 76 )  ( + T8 87 ) ) ( <= ( + T8 175 )( + T4 67 ) ) )
(or ( <= ( + T4 139 )  ( + T8 175 ) ) ( <= ( + T8 187 )( + T4 76 ) ) )
(or ( <= ( + T4 183 )  ( + T8 187 ) ) ( <= ( + T8 264 )( + T4 139 ) ) )
(or ( <= ( + T4 202 )  ( + T8 264 ) ) ( <= ( + T8 341 )( + T4 183 ) ) )
(or ( <= ( + T4 276 )  ( + T8 341 ) ) ( <= ( + T8 365 )( + T4 202 ) ) )
(or ( <= ( + T4 298 )  ( + T8 365 ) ) ( <= ( + T8 370 )( + T4 276 ) ) )
(or ( <= ( + T4 372 )  ( + T8 370 ) ) ( <= ( + T8 423 )( + T4 298 ) ) )
(or ( <= ( + T4 423 )  ( + T8 423 ) ) ( <= ( + T8 473 )( + T4 372 ) ) )
(or ( <= ( + T5 32 ) T6 ) ( <= ( + T6 10 ) T5 ) )
(or ( <= ( + T5 109 )  ( + T6 10 ) ) ( <= ( + T6 47 )( + T5 32 ) ) )
(or ( <= ( + T5 126 )  ( + T6 47 ) ) ( <= ( + T6 93 )( + T5 109 ) ) )
(or ( <= ( + T5 161 )  ( + T6 93 ) ) ( <= ( + T6 103 )( + T5 126 ) ) )
(or ( <= ( + T5 251 )  ( + T6 103 ) ) ( <= ( + T6 201 )( + T5 161 ) ) )
(or ( <= ( + T5 264 )  ( + T6 201 ) ) ( <= ( + T6 272 )( + T5 251 ) ) )
(or ( <= ( + T5 341 )  ( + T6 272 ) ) ( <= ( + T6 292 )( + T5 264 ) ) )
(or ( <= ( + T5 365 )  ( + T6 292 ) ) ( <= ( + T6 304 )( + T5 341 ) ) )
(or ( <= ( + T5 439 )  ( + T6 304 ) ) ( <= ( + T6 313 )( + T5 365 ) ) )
(or ( <= ( + T5 455 )  ( + T6 313 ) ) ( <= ( + T6 385 )( + T5 439 ) ) )
(or ( <= ( + T5 32 ) T7 ) ( <= ( + T7 8 ) T5 ) )
(or ( <= ( + T5 109 )  ( + T7 8 ) ) ( <= ( + T7 62 )( + T5 32 ) ) )
(or ( <= ( + T5 126 )  ( + T7 62 ) ) ( <= ( + T7 106 )( + T5 109 ) ) )
(or ( <= ( + T5 161 )  ( + T7 106 ) ) ( <= ( + T7 175 )( + T5 126 ) ) )
(or ( <= ( + T5 251 )  ( + T7 175 ) ) ( <= ( + T7 244 )( + T5 161 ) ) )
(or ( <= ( + T5 264 )  ( + T7 244 ) ) ( <= ( + T7 283 )( + T5 251 ) ) )
(or ( <= ( + T5 341 )  ( + T7 283 ) ) ( <= ( + T7 370 )( + T5 264 ) ) )
(or ( <= ( + T5 365 )  ( + T7 370 ) ) ( <= ( + T7 412 )( + T5 341 ) ) )
(or ( <= ( + T5 439 )  ( + T7 412 ) ) ( <= ( + T7 472 )( + T5 365 ) ) )
(or ( <= ( + T5 455 )  ( + T7 472 ) ) ( <= ( + T7 532 )( + T5 439 ) ) )
(or ( <= ( + T5 32 ) T8 ) ( <= ( + T8 44 ) T5 ) )
(or ( <= ( + T5 109 )  ( + T8 44 ) ) ( <= ( + T8 87 )( + T5 32 ) ) )
(or ( <= ( + T5 126 )  ( + T8 87 ) ) ( <= ( + T8 175 )( + T5 109 ) ) )
(or ( <= ( + T5 161 )  ( + T8 175 ) ) ( <= ( + T8 187 )( + T5 126 ) ) )
(or ( <= ( + T5 251 )  ( + T8 187 ) ) ( <= ( + T8 264 )( + T5 161 ) ) )
(or ( <= ( + T5 264 )  ( + T8 264 ) ) ( <= ( + T8 341 )( + T5 251 ) ) )
(or ( <= ( + T5 341 )  ( + T8 341 ) ) ( <= ( + T8 365 )( + T5 264 ) ) )
(or ( <= ( + T5 365 )  ( + T8 365 ) ) ( <= ( + T8 370 )( + T5 341 ) ) )
(or ( <= ( + T5 439 )  ( + T8 370 ) ) ( <= ( + T8 423 )( + T5 365 ) ) )
(or ( <= ( + T5 455 )  ( + T8 423 ) ) ( <= ( + T8 473 )( + T5 439 ) ) )
(or ( <= ( + T6 10 ) T7 ) ( <= ( + T7 8 ) T6 ) )
(or ( <= ( + T6 47 )  ( + T7 8 ) ) ( <= ( + T7 62 )( + T6 10 ) ) )
(or ( <= ( + T6 93 )  ( + T7 62 ) ) ( <= ( + T7 106 )( + T6 47 ) ) )
(or ( <= ( + T6 103 )  ( + T7 106 ) ) ( <= ( + T7 175 )( + T6 93 ) ) )
(or ( <= ( + T6 201 )  ( + T7 175 ) ) ( <= ( + T7 244 )( + T6 103 ) ) )
(or ( <= ( + T6 272 )  ( + T7 244 ) ) ( <= ( + T7 283 )( + T6 201 ) ) )
(or ( <= ( + T6 292 )  ( + T7 283 ) ) ( <= ( + T7 370 )( + T6 272 ) ) )
(or ( <= ( + T6 304 )  ( + T7 370 ) ) ( <= ( + T7 412 )( + T6 292 ) ) )
(or ( <= ( + T6 313 )  ( + T7 412 ) ) ( <= ( + T7 472 )( + T6 304 ) ) )
(or ( <= ( + T6 385 )  ( + T7 472 ) ) ( <= ( + T7 532 )( + T6 313 ) ) )
(or ( <= ( + T6 10 ) T8 ) ( <= ( + T8 44 ) T6 ) )
(or ( <= ( + T6 47 )  ( + T8 44 ) ) ( <= ( + T8 87 )( + T6 10 ) ) )
(or ( <= ( + T6 93 )  ( + T8 87 ) ) ( <= ( + T8 175 )( + T6 47 ) ) )
(or ( <= ( + T6 103 )  ( + T8 175 ) ) ( <= ( + T8 187 )( + T6 93 ) ) )
(or ( <= ( + T6 201 )  ( + T8 187 ) ) ( <= ( + T8 264 )( + T6 103 ) ) )
(or ( <= ( + T6 272 )  ( + T8 264 ) ) ( <= ( + T8 341 )( + T6 201 ) ) )
(or ( <= ( + T6 292 )  ( + T8 341 ) ) ( <= ( + T8 365 )( + T6 272 ) ) )
(or ( <= ( + T6 304 )  ( + T8 365 ) ) ( <= ( + T8 370 )( + T6 292 ) ) )
(or ( <= ( + T6 313 )  ( + T8 370 ) ) ( <= ( + T8 423 )( + T6 304 ) ) )
(or ( <= ( + T6 385 )  ( + T8 423 ) ) ( <= ( + T8 473 )( + T6 313 ) ) )
(or ( <= ( + T7 8 ) T8 ) ( <= ( + T8 44 ) T7 ) )
(or ( <= ( + T7 62 )  ( + T8 44 ) ) ( <= ( + T8 87 )( + T7 8 ) ) )
(or ( <= ( + T7 106 )  ( + T8 87 ) ) ( <= ( + T8 175 )( + T7 62 ) ) )
(or ( <= ( + T7 175 )  ( + T8 175 ) ) ( <= ( + T8 187 )( + T7 106 ) ) )
(or ( <= ( + T7 244 )  ( + T8 187 ) ) ( <= ( + T8 264 )( + T7 175 ) ) )
(or ( <= ( + T7 283 )  ( + T8 264 ) ) ( <= ( + T8 341 )( + T7 244 ) ) )
(or ( <= ( + T7 370 )  ( + T8 341 ) ) ( <= ( + T8 365 )( + T7 283 ) ) )
(or ( <= ( + T7 412 )  ( + T8 365 ) ) ( <= ( + T8 370 )( + T7 370 ) ) )
(or ( <= ( + T7 472 )  ( + T8 370 ) ) ( <= ( + T8 423 )( + T7 412 ) ) )
(or ( <= ( + T7 532 )  ( + T8 423 ) ) ( <= ( + T8 473 )( + T7 472 ) ) )
( <= ( + T1 457 ) Z)
( <= ( + T2 490 ) Z)
( <= ( + T3 533 ) Z)
( <= ( + T4 423 ) Z)
( <= ( + T5 455 ) Z)
( <= ( + T6 385 ) Z)
( <= ( + T7 532 ) Z)
( <= ( + T8 473 ) Z)
( >= T1 0 )
( >= T2 0 )
( >= T3 0 )
( >= T4 0 )
( >= T5 0 )
( >= T6 0 )
( >= T7 0 )
( >= T8 0 )
) )
(minimize Z)
(check-sat)